c A SAT instance generated from a 3-CNF formula that had 21 clauses and 7 variables
p cnf 7 21
3 6 2 0
6 2 -1 0
-5 6 -4 0
-4 7 -5 0
-7 1 -2 0
-6 -4 -3 0
-5 3 7 0
-2 3 -6 0
4 2 7 0
6 -2 3 0
4 -6 7 0
7 -4 5 0
-7 4 3 0
-1 -4 -7 0
4 -1 -3 0
6 7 -4 0
-1 5 -2 0
-6 -3 -4 0
-6 7 2 0
5 1 -6 0
-5 -3 -7 0
